sat
(
  (define-fun C2_VM3 () Int
    0)
  (define-fun C5_VM2 () Int
    1)
  (define-fun VM1Type () Int
    182)
  (define-fun ProcProv5 () Int
    8)
  (define-fun C2_VM1 () Int
    0)
  (define-fun ProcProv2 () Int
    4)
  (define-fun C5_VM1 () Int
    0)
  (define-fun C1_VM2 () Int
    0)
  (define-fun C3_VM3 () Int
    0)
  (define-fun C5_VM4 () Int
    1)
  (define-fun C4_VM6 () Int
    0)
  (define-fun MemProv3 () Int
    30000)
  (define-fun C5_VM3 () Int
    0)
  (define-fun C1_VM4 () Int
    0)
  (define-fun MemProv4 () Int
    7500)
  (define-fun PriceProv3 () Int
    532)
  (define-fun PriceProv5 () Int
    460)
  (define-fun C2_VM5 () Int
    0)
  (define-fun C3_VM4 () Int
    0)
  (define-fun StorageProv3 () Int
    2000)
  (define-fun PriceProv2 () Int
    210)
  (define-fun PriceProv4 () Int
    210)
  (define-fun C2_VM4 () Int
    1)
  (define-fun StorageProv2 () Int
    2000)
  (define-fun VM4Type () Int
    182)
  (define-fun C4_VM1 () Int
    0)
  (define-fun C5_VM6 () Int
    1)
  (define-fun VM3Type () Int
    134)
  (define-fun C3_VM5 () Int
    1)
  (define-fun PriceProv6 () Int
    210)
  (define-fun C1_VM5 () Int
    0)
  (define-fun VM2Type () Int
    182)
  (define-fun VM6Type () Int
    182)
  (define-fun StorageProv1 () Int
    2000)
  (define-fun C4_VM5 () Int
    0)
  (define-fun MemProv5 () Int
    15000)
  (define-fun StorageProv5 () Int
    2000)
  (define-fun C4_VM4 () Int
    0)
  (define-fun C3_VM2 () Int
    0)
  (define-fun StorageProv6 () Int
    2000)
  (define-fun ProcProv3 () Int
    8)
  (define-fun ProcProv4 () Int
    4)
  (define-fun C1_VM3 () Int
    0)
  (define-fun ProcProv6 () Int
    4)
  (define-fun C3_VM1 () Int
    0)
  (define-fun C4_VM3 () Int
    1)
  (define-fun C2_VM2 () Int
    1)
  (define-fun C3_VM6 () Int
    0)
  (define-fun MemProv6 () Int
    7500)
  (define-fun C5_VM5 () Int
    1)
  (define-fun C1_VM6 () Int
    0)
  (define-fun C4_VM2 () Int
    0)
  (define-fun MemProv1 () Int
    7500)
  (define-fun StorageProv4 () Int
    2000)
  (define-fun PriceProv1 () Int
    210)
  (define-fun VM5Type () Int
    136)
  (define-fun MemProv2 () Int
    7500)
  (define-fun C2_VM6 () Int
    1)
  (define-fun ProcProv1 () Int
    4)
  (define-fun C1_VM1 () Int
    1)
)
(
  (define-fun C2_VM3 () Int
    0)
  (define-fun C5_VM2 () Int
    1)
  (define-fun VM1Type () Int
    182)
  (define-fun ProcProv5 () Int
    8)
  (define-fun C2_VM1 () Int
    0)
  (define-fun ProcProv2 () Int
    4)
  (define-fun C5_VM1 () Int
    0)
  (define-fun C1_VM2 () Int
    0)
  (define-fun C3_VM3 () Int
    0)
  (define-fun C5_VM4 () Int
    1)
  (define-fun C4_VM6 () Int
    0)
  (define-fun MemProv3 () Int
    30000)
  (define-fun C5_VM3 () Int
    0)
  (define-fun C1_VM4 () Int
    0)
  (define-fun MemProv4 () Int
    7500)
  (define-fun PriceProv3 () Int
    532)
  (define-fun PriceProv5 () Int
    460)
  (define-fun C2_VM5 () Int
    0)
  (define-fun C3_VM4 () Int
    0)
  (define-fun StorageProv3 () Int
    2000)
  (define-fun PriceProv2 () Int
    210)
  (define-fun PriceProv4 () Int
    210)
  (define-fun C2_VM4 () Int
    1)
  (define-fun StorageProv2 () Int
    2000)
  (define-fun VM4Type () Int
    182)
  (define-fun C4_VM1 () Int
    0)
  (define-fun C5_VM6 () Int
    1)
  (define-fun VM3Type () Int
    134)
  (define-fun C3_VM5 () Int
    1)
  (define-fun PriceProv6 () Int
    210)
  (define-fun C1_VM5 () Int
    0)
  (define-fun VM2Type () Int
    182)
  (define-fun VM6Type () Int
    182)
  (define-fun StorageProv1 () Int
    2000)
  (define-fun C4_VM5 () Int
    0)
  (define-fun MemProv5 () Int
    15000)
  (define-fun StorageProv5 () Int
    2000)
  (define-fun C4_VM4 () Int
    0)
  (define-fun C3_VM2 () Int
    0)
  (define-fun StorageProv6 () Int
    2000)
  (define-fun ProcProv3 () Int
    8)
  (define-fun ProcProv4 () Int
    4)
  (define-fun C1_VM3 () Int
    0)
  (define-fun ProcProv6 () Int
    4)
  (define-fun C3_VM1 () Int
    0)
  (define-fun C4_VM3 () Int
    1)
  (define-fun C2_VM2 () Int
    1)
  (define-fun C3_VM6 () Int
    0)
  (define-fun MemProv6 () Int
    7500)
  (define-fun C5_VM5 () Int
    1)
  (define-fun C1_VM6 () Int
    0)
  (define-fun C4_VM2 () Int
    0)
  (define-fun MemProv1 () Int
    7500)
  (define-fun StorageProv4 () Int
    2000)
  (define-fun PriceProv1 () Int
    210)
  (define-fun VM5Type () Int
    136)
  (define-fun MemProv2 () Int
    7500)
  (define-fun C2_VM6 () Int
    1)
  (define-fun ProcProv1 () Int
    4)
  (define-fun C1_VM1 () Int
    1)
)
(objectives
 ( 1670)
 ((+ 0 PriceProv1 PriceProv2 PriceProv3 PriceProv4 PriceProv5 PriceProv6) 1832)
)
(:added-eqs                   4481563
 :arith-eq-adapter            16546906
 :arith-bound-propagations-lp 434934
 :arith-conflicts             169
 :arith-diseq                 21169518
 :arith-fixed-eqs             54008
 :arith-lower                 23255743
 :arith-make-feasible         3393254
 :arith-max-columns           350
 :arith-max-rows              20
 :arith-upper                 20934209
 :binary-propagations         67579869
 :bv-bit2core                 489078
 :bv-dynamic-diseqs           27330568
 :bv-dynamic-eqs              4
 :bv->core-eq                 3394
 :conflicts                   94685
 :decisions                   12832511
 :del-clause                  39442762
 :final-checks                3551
 :max-memory                  158.24
 :maxsat-cores                1635
 :memory                      147.06
 :minimized-lits              1729464
 :mk-bool-var                 14612422
 :mk-clause                   39444912
 :mk-clause-binary            13107
 :num-allocs                  12409599629394.00
 :num-checks                  6250
 :pb-conflicts                436
 :pb-predicates               18
 :pb-propagations             60436
 :pb-resolves                 420
 :propagations                127491132
 :restarts                    279
 :rlimit-count                856317768
 :solve-eqs-elim-vars         1
 :solve-eqs-steps             10
 :time                        94.44
 :total-time                  94.46)
